c instance by G2
c solution = 110101111110111
c Known solution cost is 85
p cnf 15 30
w 5 5 9 5 7 6 9 3 7 8 1 8 5 7 0
6 -1 2 0
8 5 -14 0
-11 5 1 0
7 -5 -1 0
2 12 -8 0
-7 -4 8 0
-8 3 -12 0
1 -7 -14 0
-6 -9 -12 0
-3 11 -5 0
-13 4 12 0
4 12 6 0
2 -9 1 0
14 -1 2 0
-1 -8 -12 0
-4 5 -3 0
13 7 3 0
-4 -14 13 0
-11 2 15 0
-3 -11 14 0
-12 6 13 0
-12 14 4 0
4 12 5 0
1 6 14 0
-7 -3 -9 0
7 14 -12 0
-12 -9 8 0
4 9 -7 0
11 13 -15 0
15 -7 -1 0
